c description: Random 3-CNF over 23 variables and 98 clauses
c generator: CNFgen (0.9.2)
c copyright: (C) 2012-2022 Massimo Lauria <massimo.lauria@uniroma1.it>
c url: https://massimolauria.net/cnfgen
c command line: cnfgen --output CNF_4.28/23_bit_98_497.cnf randkcnf 3 23 98
c
p cnf 23 98
-6 -8 -13 0
-3 10 -12 0
-3 -6 14 0
9 10 12 0
-16 -18 -22 0
7 -8 13 0
5 -6 9 0
4 12 19 0
1 11 23 0
-9 -15 19 0
-2 -9 15 0
5 6 9 0
-1 -3 -12 0
-3 -13 15 0
6 17 -18 0
-15 -17 -23 0
-5 14 20 0
-7 17 20 0
-12 13 -20 0
-1 -6 -13 0
-12 15 -22 0
3 -12 -13 0
16 -22 -23 0
4 5 -6 0
7 -13 18 0
-14 15 -18 0
-3 7 -13 0
4 -16 18 0
5 7 20 0
-7 20 -21 0
-7 12 21 0
-7 8 9 0
-6 -7 12 0
-3 9 -11 0
5 13 16 0
1 -7 -14 0
-3 -7 14 0
9 18 -20 0
-1 3 -4 0
-11 -13 17 0
-4 7 20 0
-14 -20 22 0
-6 8 -14 0
-11 -15 -17 0
2 -3 13 0
-4 21 22 0
-2 4 18 0
2 -15 -22 0
6 -12 17 0
8 11 -15 0
-7 -10 -21 0
1 19 21 0
-7 -17 -19 0
5 -9 -13 0
-10 -13 20 0
1 -5 -11 0
7 -8 -12 0
1 10 -11 0
-1 -4 -8 0
-4 -18 19 0
-3 -21 -22 0
-2 8 -16 0
4 5 20 0
10 -18 -21 0
-9 -11 -16 0
2 -5 13 0
-1 -13 -22 0
-1 -6 11 0
-16 17 -18 0
4 -6 15 0
16 -19 -22 0
3 -14 -20 0
-16 17 22 0
-6 14 -18 0
-1 -10 -23 0
-7 -11 20 0
14 20 -23 0
-16 -21 22 0
10 13 -17 0
7 13 -22 0
-1 17 19 0
3 4 21 0
-8 11 23 0
3 9 11 0
-10 -14 20 0
-8 -18 -19 0
13 -18 22 0
17 -18 -21 0
5 9 22 0
-9 -10 -17 0
6 -8 20 0
13 -22 -23 0
1 -6 20 0
-12 -17 -18 0
11 18 -20 0
-13 20 -21 0
5 19 -23 0
1 -8 19 0
